12 32 3 10
14 3 12 7 5 9 8 14 12 1 3 7 7 1 15 20 20 14 12 7 20 20 7 5 2 9 18 3 1 20 16 2 
8.71 3.31 12.84 0.22 13.8 13.26 10.82 5.89 8.8 2.25 11.04 0.62 3.15 10.2 8.47 14.81 13.44 7.26 15.6 12.56 9.91 8.44 12.73 13.12 15.76 9.04 10.73 5.97 2.79 11.82 5.89 0.47 
7.67 4.2 15.18 15.83 14.28 5.18 12.05 12.93 6.42 10.4 11.82 0.72 11.07 8.27 13.81 15.97 12.12 2.42 2.75 7.89 4.88 7.32 8.54 14.05 4.68 4.54 11.33 0.38 3.08 10.26 10.89 4.77 
9.71 3.01 0.44 15.34 15.24 0.16 11.27 2.33 10.34 8.17 9.85 5.53 8.97 4.26 10.13 12.65 13.64 9.59 8.28 14.54 11.06 4.02 3.16 6.67 14.45 9.28 7.05 10.45 12.16 7.09 10.7 12.97 
8 8 8 8 8 8 8 8 8 8 8 8 8 8 8 8 8 8 8 8 8 8 8 8 8 8 8 8 8 8 8 8 
4.8 3.85 13.2 13.24 3.86 8.47 3.58 6.54 4.06 13.18 0.96 5.88 12.54 4.68 6.51 3.97 0.49 9.93 2.63 0.39 10.69 13.18 0.95 13.97 5.59 1.16 14.11 7.8 14.59 8.36 12.85 0.32 
0.07 10.78 13.18 4.65 7.73 1.52 15.33 11.33 1.22 4.28 15.34 7.56 5.41 5.47 8.06 6.46 9.72 0.66 1.87 13.33 9.55 14.38 14.38 4.5 8.56 10.08 8.35 3.61 3.49 1.85 4.7 5.07 
6.44 5.02 2.11 8.98 6.41 8.37 9.57 9.43 14.37 3.81 14.82 12.34 12.15 4.41 9.37 1.99 10.13 3.24 11.13 1.44 8.76 2.69 3.19 4.3 10.98 8.39 7.93 2.93 11.18 5.19 15.8 4.91 
9 13.81 5.61 12.27 4.05 14.48 0.55 7.84 15.18 0.79 15.37 9.22 13.58 3.19 9.96 12.5 0.06 11.54 13.62 2.16 4.28 7.6 10.94 6.76 3.62 6.14 12.61 2.5 2.73 14.22 0.6 2.02 
10.37 5.57 1.29 2.21 6.51 3.94 13.39 4.93 2.23 1.95 1.06 9.57 10 9.99 14.21 9.11 4.8 9.01 13.63 9.55 10.8 14.98 12.52 8.48 4.53 8.84 10.63 7.74 8.95 5.33 15.13 8.15 
10.84 4.49 6.42 9.02 11.79 9.64 13.87 2.06 8.23 4.88 12.65 1.63 14.13 6.8 6.07 4.44 13.39 2.14 15.52 13.31 8.95 1.12 3.44 1.59 9.75 9.71 13.12 1.4 7.93 11.29 4.53 1.73 
5.54 6.59 0.16 6.01 9.6 7.37 15.14 12.38 6.05 1.67 7.41 12.83 9.2 5.95 14.95 9.86 11.49 11.62 6.26 10.95 1.44 11.79 12.97 15.63 1.99 11.5 4.48 5.13 3.31 1.76 9.19 14.65 
15.23 1.86 6.82 0.08 6.5 3.05 0.62 14.36 13.85 3.23 0.46 11.68 12.4 3.61 12.69 1.81 13.87 12.27 4.21 11.72 14.06 7.37 15.16 7.87 15.48 7.9 8.15 1.61 3.29 5.36 10.91 6.75 
1 1 1 1 1 1 1 1 1 1 1 1 1 1 1 1 1 1 1 1 1 1 1 1 1 1 1 1 1 1 1 1 
1 1 1 1 1 1 1 1 1 1 1 1 1 1 1 1 1 1 1 1 1 1 1 1 1 1 1 1 1 1 1 1 
1 1 1 1 1 1 1 1 1 1 1 1 1 1 1 1 1 1 1 1 1 1 1 1 1 1 1 1 1 1 1 1 
1 1 1 1 1 1 1 1 1 1 1 1 1 1 1 1 1 1 1 1 1 1 1 1 1 1 1 1 1 1 1 1 
1 1 1 1 1 1 1 1 1 1 1 1 1 1 1 1 1 1 1 1 1 1 1 1 1 1 1 1 1 1 1 1 
1 1 1 1 1 1 1 1 1 1 1 1 1 1 1 1 1 1 1 1 1 1 1 1 1 1 1 1 1 1 1 1 
1 1 1 1 1 1 1 1 1 1 1 1 1 1 1 1 1 1 1 1 1 1 1 1 1 1 1 1 1 1 1 1 
1 1 1 1 1 1 1 1 1 1 1 1 1 1 1 1 1 1 1 1 1 1 1 1 1 1 1 1 1 1 1 1 
1 1 1 1 1 1 1 1 1 1 1 1 1 1 1 1 1 1 1 1 1 1 1 1 1 1 1 1 1 1 1 1 
1 1 1 1 1 1 1 1 1 1 1 1 1 1 1 1 1 1 1 1 1 1 1 1 1 1 1 1 1 1 1 1 
1 1 1 1 1 1 1 1 1 1 1 1 1 1 1 1 1 1 1 1 1 1 1 1 1 1 1 1 1 1 1 1 
1 1 1 1 1 1 1 1 1 1 1 1 1 1 1 1 1 1 1 1 1 1 1 1 1 1 1 1 1 1 1 1 
0.01 0.01 0.01 0.01 0.01 0.01 0.01 0.01 0.01 0.01 0.01 0.01 0.01 0.01 0.01 0.01 0.01 0.01 0.01 0.01 0.01 0.01 0.01 0.01 0.01 0.01 0.01 0.01 0.01 0.01 0.01 0.01 
0.02 0.02 0.02 0.02 0.02 0.02 0.02 0.02 0.02 0.02 0.02 0.02 0.02 0.02 0.02 0.02 0.02 0.02 0.02 0.02 0.02 0.02 0.02 0.02 0.02 0.02 0.02 0.02 0.02 0.02 0.02 0.02 
0.03 0.03 0.03 0.03 0.03 0.03 0.03 0.03 0.03 0.03 0.03 0.03 0.03 0.03 0.03 0.03 0.03 0.03 0.03 0.03 0.03 0.03 0.03 0.03 0.03 0.03 0.03 0.03 0.03 0.03 0.03 0.03 
0.04 0.04 0.04 0.04 0.04 0.04 0.04 0.04 0.04 0.04 0.04 0.04 0.04 0.04 0.04 0.04 0.04 0.04 0.04 0.04 0.04 0.04 0.04 0.04 0.04 0.04 0.04 0.04 0.04 0.04 0.04 0.04 
0.125 0.125 0.125 0.125 0.125 0.125 0.125 0.125 0.125 0.125 0.125 0.125 0.125 0.125 0.125 0.125 0.125 0.125 0.125 0.125 0.125 0.125 0.125 0.125 0.125 0.125 0.125 0.125 0.125 0.125 0.125 0.125 
0.25 0.25 0.25 0.25 0.25 0.25 0.25 0.25 0.25 0.25 0.25 0.25 0.25 0.25 0.25 0.25 0.25 0.25 0.25 0.25 0.25 0.25 0.25 0.25 0.25 0.25 0.25 0.25 0.25 0.25 0.25 0.25 
0.375 0.375 0.375 0.375 0.375 0.375 0.375 0.375 0.375 0.375 0.375 0.375 0.375 0.375 0.375 0.375 0.375 0.375 0.375 0.375 0.375 0.375 0.375 0.375 0.375 0.375 0.375 0.375 0.375 0.375 0.375 0.375 
0.5 0.5 0.5 0.5 0.5 0.5 0.5 0.5 0.5 0.5 0.5 0.5 0.5 0.5 0.5 0.5 0.5 0.5 0.5 0.5 0.5 0.5 0.5 0.5 0.5 0.5 0.5 0.5 0.5 0.5 0.5 0.5 
0.625 0.625 0.625 0.625 0.625 0.625 0.625 0.625 0.625 0.625 0.625 0.625 0.625 0.625 0.625 0.625 0.625 0.625 0.625 0.625 0.625 0.625 0.625 0.625 0.625 0.625 0.625 0.625 0.625 0.625 0.625 0.625 
0.75 0.75 0.75 0.75 0.75 0.75 0.75 0.75 0.75 0.75 0.75 0.75 0.75 0.75 0.75 0.75 0.75 0.75 0.75 0.75 0.75 0.75 0.75 0.75 0.75 0.75 0.75 0.75 0.75 0.75 0.75 0.75 
0.875 0.875 0.875 0.875 0.875 0.875 0.875 0.875 0.875 0.875 0.875 0.875 0.875 0.875 0.875 0.875 0.875 0.875 0.875 0.875 0.875 0.875 0.875 0.875 0.875 0.875 0.875 0.875 0.875 0.875 0.875 0.875 
1 1 1 1 1 1 1 1 1 1 1 1 1 1 1 1 1 1 1 1 1 1 1 1 1 1 1 1 1 1 1 1 
